%%% static parameters %%%
timespan = 1;
Clients_N = [4000];
Demand_W = [15];
Lt0 = [4];
Lt1 = [4];
SS_ = [0.85];
DS_D = [20];
K = [200];
MA = [500];
HC = [0.05];
%%% dynamic parameters %%%
lost_ratio_sales_ret_th = 0.00019900242028138594;
lost_ratio_sales_ret_w = 13;
lost_ratio_sales_dis_th = 0.0007341810860392826;
lost_ratio_sales_dis_w = 94;
lost_ratio_sales_fac_th = 0.0008706689569150504;
lost_ratio_sales_fac_w = 41;
stock_customer_MA_mean_relative_th = 0.7706099891772094;
stock_customer_MA_mean_relative_w = 68;
stock_distributor_MA_mean_relative_th = 0.03905894319801562;
stock_distributor_MA_mean_relative_w = 67;
stock_retailer_MA_mean_relative_th = 0.705472181994907;
stock_retailer_MA_mean_relative_w = 70;
stock_factory_MA_mean_relative_th = 0.8759070079437541;
stock_factory_MA_mean_relative_w = 24;
